data/lp_files/q3/57_4.lp
\ Model foo
\ LP format - for model browsing. Use MPS format to capture full model detail.
Minimize
  z
Subject To
 allocateEach[1]: x[1,1] + x[2,1] + x[3,1] = 1
 allocateEach[2]: x[1,2] + x[2,2] + x[3,2] = 1
 allocateEach[3]: x[1,3] + x[2,3] + x[3,3] = 1
 allocateEach[4]: x[1,4] + x[2,4] + x[3,4] = 1
 allocateEach[5]: x[1,5] + x[2,5] + x[3,5] = 1
 allocateEach[6]: x[1,6] + x[2,6] + x[3,6] = 1
 allocateEach[7]: x[1,7] + x[2,7] + x[3,7] = 1
 allocateEach[8]: x[1,8] + x[2,8] + x[3,8] = 1
 allocateEach[9]: x[1,9] + x[2,9] + x[3,9] = 1
 allocateEach[10]: x[1,10] + x[2,10] + x[3,10] = 1
 allocateEach[11]: x[1,11] + x[2,11] + x[3,11] = 1
 allocateEach[12]: x[1,12] + x[2,12] + x[3,12] = 1
 allocateEach[13]: x[1,13] + x[2,13] + x[3,13] = 1
 allocateEach[14]: x[1,14] + x[2,14] + x[3,14] = 1
 allocateEach[15]: x[1,15] + x[2,15] + x[3,15] = 1
 allocateEach[16]: x[1,16] + x[2,16] + x[3,16] = 1
 allocateEach[17]: x[1,17] + x[2,17] + x[3,17] = 1
 allocateAllCash: cashProportion[1] + cashProportion[2] + cashProportion[3]
   = 1
 findWorstP[1,2]: z + 0.0279851790491756 cashProportion[1]
   - 0.0279851790491756 cashProportion[2] + 0.00869779364848376 x[1,1]
   + 0.0992914152664749 x[1,2] + 0.0100410822428442 x[1,3]
   + 0.0848846450919593 x[1,4] + 0.0350374441695678 x[1,5]
   + 0.0743846059127086 x[1,6] + 0.0957093123481804 x[1,7]
   + 0.1108772793928336 x[1,8] + 0.1018212754525203 x[1,9]
   + 0.024268747271445 x[1,10] + 0.0464665912932511 x[1,11]
   + 0.090224217254542 x[1,12] + 0.0921160153582663 x[1,13]
   + 0.0437352378180516 x[1,14] + 0.0214814234381472 x[1,15]
   + 0.0319590744741585 x[1,16] + 0.00101866051738999 x[1,17]
   - 0.00869779364848376 x[2,1] - 0.0992914152664749 x[2,2]
   - 0.0100410822428442 x[2,3] - 0.0848846450919593 x[2,4]
   - 0.0350374441695678 x[2,5] - 0.0743846059127086 x[2,6]
   - 0.0957093123481804 x[2,7] - 0.1108772793928336 x[2,8]
   - 0.1018212754525203 x[2,9] - 0.024268747271445 x[2,10]
   - 0.0464665912932511 x[2,11] - 0.090224217254542 x[2,12]
   - 0.0921160153582663 x[2,13] - 0.0437352378180516 x[2,14]
   - 0.0214814234381472 x[2,15] - 0.0319590744741585 x[2,16]
   - 0.00101866051738999 x[2,17] >= 0
 findWorstP[1,3]: z + 0.0279851790491756 cashProportion[1]
   - 0.0279851790491756 cashProportion[3] + 0.00869779364848376 x[1,1]
   + 0.0992914152664749 x[1,2] + 0.0100410822428442 x[1,3]
   + 0.0848846450919593 x[1,4] + 0.0350374441695678 x[1,5]
   + 0.0743846059127086 x[1,6] + 0.0957093123481804 x[1,7]
   + 0.1108772793928336 x[1,8] + 0.1018212754525203 x[1,9]
   + 0.024268747271445 x[1,10] + 0.0464665912932511 x[1,11]
   + 0.090224217254542 x[1,12] + 0.0921160153582663 x[1,13]
   + 0.0437352378180516 x[1,14] + 0.0214814234381472 x[1,15]
   + 0.0319590744741585 x[1,16] + 0.00101866051738999 x[1,17]
   - 0.00869779364848376 x[3,1] - 0.0992914152664749 x[3,2]
   - 0.0100410822428442 x[3,3] - 0.0848846450919593 x[3,4]
   - 0.0350374441695678 x[3,5] - 0.0743846059127086 x[3,6]
   - 0.0957093123481804 x[3,7] - 0.1108772793928336 x[3,8]
   - 0.1018212754525203 x[3,9] - 0.024268747271445 x[3,10]
   - 0.0464665912932511 x[3,11] - 0.090224217254542 x[3,12]
   - 0.0921160153582663 x[3,13] - 0.0437352378180516 x[3,14]
   - 0.0214814234381472 x[3,15] - 0.0319590744741585 x[3,16]
   - 0.00101866051738999 x[3,17] >= 0
 findWorstP[2,1]: z - 0.0269949249541086 cashProportion[1]
   + 0.0269949249541086 cashProportion[2] - 0.0354389374797538 x[1,1]
   - 0.0988662131519274 x[1,2] - 0.0882518086599719 x[1,3]
   - 0.1073426195875175 x[1,4] - 0.0143720980455674 x[1,5]
   - 0.0247597451679084 x[1,6] - 0.0057661159701976 x[1,7]
   - 0.0112730806608358 x[1,8] - 0.1063168124392614 x[1,9]
   - 0.0836194795378469 x[1,10] - 0.0613000755857899 x[1,11]
   - 0.0288737717309146 x[1,12] - 0.0543785768275564 x[1,13]
   - 0.00430839 x[1,14] - 0.1046215311521434 x[1,15]
   - 0.0805420580930785 x[1,16] - 0.0629737609329446 x[1,17]
   + 0.0354389374797538 x[2,1] + 0.0988662131519274 x[2,2]
   + 0.0882518086599719 x[2,3] + 0.1073426195875175 x[2,4]
   + 0.0143720980455674 x[2,5] + 0.0247597451679084 x[2,6]
   + 0.0057661159701976 x[2,7] + 0.0112730806608358 x[2,8]
   + 0.1063168124392614 x[2,9] + 0.0836194795378469 x[2,10]
   + 0.0613000755857899 x[2,11] + 0.0288737717309146 x[2,12]
   + 0.0543785768275564 x[2,13] + 0.00430839 x[2,14]
   + 0.1046215311521434 x[2,15] + 0.0805420580930785 x[2,16]
   + 0.0629737609329446 x[2,17] >= 0
 findWorstP[2,3]: z + 0.0269949249541086 cashProportion[2]
   - 0.0269949249541086 cashProportion[3] + 0.0354389374797538 x[2,1]
   + 0.0988662131519274 x[2,2] + 0.0882518086599719 x[2,3]
   + 0.1073426195875175 x[2,4] + 0.0143720980455674 x[2,5]
   + 0.0247597451679084 x[2,6] + 0.0057661159701976 x[2,7]
   + 0.0112730806608358 x[2,8] + 0.1063168124392614 x[2,9]
   + 0.0836194795378469 x[2,10] + 0.0613000755857899 x[2,11]
   + 0.0288737717309146 x[2,12] + 0.0543785768275564 x[2,13]
   + 0.00430839 x[2,14] + 0.1046215311521434 x[2,15]
   + 0.0805420580930785 x[2,16] + 0.0629737609329446 x[2,17]
   - 0.0354389374797538 x[3,1] - 0.0988662131519274 x[3,2]
   - 0.0882518086599719 x[3,3] - 0.1073426195875175 x[3,4]
   - 0.0143720980455674 x[3,5] - 0.0247597451679084 x[3,6]
   - 0.0057661159701976 x[3,7] - 0.0112730806608358 x[3,8]
   - 0.1063168124392614 x[3,9] - 0.0836194795378469 x[3,10]
   - 0.0613000755857899 x[3,11] - 0.0288737717309146 x[3,12]
   - 0.0543785768275564 x[3,13] - 0.00430839 x[3,14]
   - 0.1046215311521434 x[3,15] - 0.0805420580930785 x[3,16]
   - 0.0629737609329446 x[3,17] >= 0
 findWorstP[3,1]: z - 0.0246850191555749 cashProportion[1]
   + 0.0246850191555749 cashProportion[3] - 0.0883427465539713 x[1,1]
   - 0.0816777913819661 x[1,2] - 0.0984932264307437 x[1,3]
   - 0.0150973577155496 x[1,4] - 0.0394664086259331 x[1,5]
   - 0.086911015442948 x[1,6] - 0.0357142857142857 x[1,7]
   - 0.0742821596429559 x[1,8] - 0.0754966625854101 x[1,9]
   - 0.0867234092973656 x[1,10] - 0.0183854022670722 x[1,11]
   - 0.0237963584659742 x[1,12] - 0.0657213949998025 x[1,13]
   - 0.0432777755835538 x[1,14] - 0.0169832931790355 x[1,15]
   - 0.0958074963466172 x[1,16] - 0.0291381966112406 x[1,17]
   + 0.0883427465539713 x[3,1] + 0.0816777913819661 x[3,2]
   + 0.0984932264307437 x[3,3] + 0.0150973577155496 x[3,4]
   + 0.0394664086259331 x[3,5] + 0.086911015442948 x[3,6]
   + 0.0357142857142857 x[3,7] + 0.0742821596429559 x[3,8]
   + 0.0754966625854101 x[3,9] + 0.0867234092973656 x[3,10]
   + 0.0183854022670722 x[3,11] + 0.0237963584659742 x[3,12]
   + 0.0657213949998025 x[3,13] + 0.0432777755835538 x[3,14]
   + 0.0169832931790355 x[3,15] + 0.0958074963466172 x[3,16]
   + 0.0291381966112406 x[3,17] >= 0
 findWorstP[3,2]: z - 0.0246850191555749 cashProportion[2]
   + 0.0246850191555749 cashProportion[3] - 0.0883427465539713 x[2,1]
   - 0.0816777913819661 x[2,2] - 0.0984932264307437 x[2,3]
   - 0.0150973577155496 x[2,4] - 0.0394664086259331 x[2,5]
   - 0.086911015442948 x[2,6] - 0.0357142857142857 x[2,7]
   - 0.0742821596429559 x[2,8] - 0.0754966625854101 x[2,9]
   - 0.0867234092973656 x[2,10] - 0.0183854022670722 x[2,11]
   - 0.0237963584659742 x[2,12] - 0.0657213949998025 x[2,13]
   - 0.0432777755835538 x[2,14] - 0.0169832931790355 x[2,15]
   - 0.0958074963466172 x[2,16] - 0.0291381966112406 x[2,17]
   + 0.0883427465539713 x[3,1] + 0.0816777913819661 x[3,2]
   + 0.0984932264307437 x[3,3] + 0.0150973577155496 x[3,4]
   + 0.0394664086259331 x[3,5] + 0.086911015442948 x[3,6]
   + 0.0357142857142857 x[3,7] + 0.0742821596429559 x[3,8]
   + 0.0754966625854101 x[3,9] + 0.0867234092973656 x[3,10]
   + 0.0183854022670722 x[3,11] + 0.0237963584659742 x[3,12]
   + 0.0657213949998025 x[3,13] + 0.0432777755835538 x[3,14]
   + 0.0169832931790355 x[3,15] + 0.0958074963466172 x[3,16]
   + 0.0291381966112406 x[3,17] >= 0
Bounds
 z <= 1
 -infinity <= cashProportion[1] <= 1
 -infinity <= cashProportion[2] <= 1
 -infinity <= cashProportion[3] <= 1
Binaries
 x[1,1] x[1,2] x[1,3] x[1,4] x[1,5] x[1,6] x[1,7] x[1,8] x[1,9] x[1,10]
 x[1,11] x[1,12] x[1,13] x[1,14] x[1,15] x[1,16] x[1,17] x[2,1] x[2,2]
 x[2,3] x[2,4] x[2,5] x[2,6] x[2,7] x[2,8] x[2,9] x[2,10] x[2,11] x[2,12]
 x[2,13] x[2,14] x[2,15] x[2,16] x[2,17] x[3,1] x[3,2] x[3,3] x[3,4] x[3,5]
 x[3,6] x[3,7] x[3,8] x[3,9] x[3,10] x[3,11] x[3,12] x[3,13] x[3,14]
 x[3,15] x[3,16] x[3,17]
End
