data/mps_files/q3/57_4.mps
NAME foo
ROWS
 N  OBJ
 E  allocateEach[1]
 E  allocateEach[2]
 E  allocateEach[3]
 E  allocateEach[4]
 E  allocateEach[5]
 E  allocateEach[6]
 E  allocateEach[7]
 E  allocateEach[8]
 E  allocateEach[9]
 E  allocateEach[10]
 E  allocateEach[11]
 E  allocateEach[12]
 E  allocateEach[13]
 E  allocateEach[14]
 E  allocateEach[15]
 E  allocateEach[16]
 E  allocateEach[17]
 E  allocateAllCash
 G  findWorstP[1,2]
 G  findWorstP[1,3]
 G  findWorstP[2,1]
 G  findWorstP[2,3]
 G  findWorstP[3,1]
 G  findWorstP[3,2]
COLUMNS
    z         OBJ       1
    z         findWorstP[1,2]  1
    z         findWorstP[1,3]  1
    z         findWorstP[2,1]  1
    z         findWorstP[2,3]  1
    z         findWorstP[3,1]  1
    z         findWorstP[3,2]  1
    cashProportion[1]  allocateAllCash  1
    cashProportion[1]  findWorstP[1,2]  2.7985179049175555e-02
    cashProportion[1]  findWorstP[1,3]  2.7985179049175555e-02
    cashProportion[1]  findWorstP[2,1]  -2.6994924954108629e-02
    cashProportion[1]  findWorstP[3,1]  -2.4685019155574861e-02
    cashProportion[2]  allocateAllCash  1
    cashProportion[2]  findWorstP[1,2]  -2.7985179049175555e-02
    cashProportion[2]  findWorstP[2,1]  2.6994924954108629e-02
    cashProportion[2]  findWorstP[2,3]  2.6994924954108629e-02
    cashProportion[2]  findWorstP[3,2]  -2.4685019155574861e-02
    cashProportion[3]  allocateAllCash  1
    cashProportion[3]  findWorstP[1,3]  -2.7985179049175555e-02
    cashProportion[3]  findWorstP[2,3]  -2.6994924954108629e-02
    cashProportion[3]  findWorstP[3,1]  2.4685019155574861e-02
    cashProportion[3]  findWorstP[3,2]  2.4685019155574861e-02
    MARKER    'MARKER'                 'INTORG'
    x[1,1]    allocateEach[1]  1
    x[1,1]    findWorstP[1,2]  8.6977936484837638e-03
    x[1,1]    findWorstP[1,3]  8.6977936484837638e-03
    x[1,1]    findWorstP[2,1]  -3.5438937479753810e-02
    x[1,1]    findWorstP[3,1]  -8.8342746553971313e-02
    x[1,2]    allocateEach[2]  1
    x[1,2]    findWorstP[1,2]  9.9291415266474864e-02
    x[1,2]    findWorstP[1,3]  9.9291415266474864e-02
    x[1,2]    findWorstP[2,1]  -9.8866213151927437e-02
    x[1,2]    findWorstP[3,1]  -8.1677791381966111e-02
    x[1,3]    allocateEach[3]  1
    x[1,3]    findWorstP[1,2]  1.0041082242844189e-02
    x[1,3]    findWorstP[1,3]  1.0041082242844189e-02
    x[1,3]    findWorstP[2,1]  -8.8251808659971939e-02
    x[1,3]    findWorstP[3,1]  -0.0984932264307437
    x[1,4]    allocateEach[4]  1
    x[1,4]    findWorstP[1,2]  0.0848846450919593
    x[1,4]    findWorstP[1,3]  0.0848846450919593
    x[1,4]    findWorstP[2,1]  -1.0734261958751755e-01
    x[1,4]    findWorstP[3,1]  -1.5097357715549585e-02
    x[1,5]    allocateEach[5]  1
    x[1,5]    findWorstP[1,2]  0.0350374441695678
    x[1,5]    findWorstP[1,3]  0.0350374441695678
    x[1,5]    findWorstP[2,1]  -1.4372098045567433e-02
    x[1,5]    findWorstP[3,1]  -3.9466408625933085e-02
    x[1,6]    allocateEach[6]  1
    x[1,6]    findWorstP[1,2]  7.4384605912708623e-02
    x[1,6]    findWorstP[1,3]  7.4384605912708623e-02
    x[1,6]    findWorstP[2,1]  -2.4759745167908433e-02
    x[1,6]    findWorstP[3,1]  -8.6911015442947964e-02
    x[1,7]    allocateEach[7]  1
    x[1,7]    findWorstP[1,2]  9.5709312348180392e-02
    x[1,7]    findWorstP[1,3]  9.5709312348180392e-02
    x[1,7]    findWorstP[2,1]  -5.7661159701976033e-03
    x[1,7]    findWorstP[3,1]  -3.5714285714285712e-02
    x[1,8]    allocateEach[8]  1
    x[1,8]    findWorstP[1,2]  1.1087727939283355e-01
    x[1,8]    findWorstP[1,3]  1.1087727939283355e-01
    x[1,8]    findWorstP[2,1]  -1.1273080660835764e-02
    x[1,8]    findWorstP[3,1]  -7.4282159642955869e-02
    x[1,9]    allocateEach[9]  1
    x[1,9]    findWorstP[1,2]  1.0182127545252033e-01
    x[1,9]    findWorstP[1,3]  1.0182127545252033e-01
    x[1,9]    findWorstP[2,1]  -1.0631681243926143e-01
    x[1,9]    findWorstP[3,1]  -7.5496662585410143e-02
    x[1,10]   allocateEach[10]  1
    x[1,10]   findWorstP[1,2]  2.4268747271445040e-02
    x[1,10]   findWorstP[1,3]  2.4268747271445040e-02
    x[1,10]   findWorstP[2,1]  -8.3619479537846889e-02
    x[1,10]   findWorstP[3,1]  -0.0867234092973656
    x[1,11]   allocateEach[11]  1
    x[1,11]   findWorstP[1,2]  4.6466591293251092e-02
    x[1,11]   findWorstP[1,3]  4.6466591293251092e-02
    x[1,11]   findWorstP[2,1]  -6.1300075585789870e-02
    x[1,11]   findWorstP[3,1]  -1.8385402267072158e-02
    x[1,12]   allocateEach[12]  1
    x[1,12]   findWorstP[1,2]  0.090224217254542
    x[1,12]   findWorstP[1,3]  0.090224217254542
    x[1,12]   findWorstP[2,1]  -2.8873771730914592e-02
    x[1,12]   findWorstP[3,1]  -2.3796358465974166e-02
    x[1,13]   allocateEach[13]  1
    x[1,13]   findWorstP[1,2]  9.2116015358266259e-02
    x[1,13]   findWorstP[1,3]  9.2116015358266259e-02
    x[1,13]   findWorstP[2,1]  -5.4378576827556424e-02
    x[1,13]   findWorstP[3,1]  -6.5721394999802507e-02
    x[1,14]   allocateEach[14]  1
    x[1,14]   findWorstP[1,2]  4.3735237818051553e-02
    x[1,14]   findWorstP[1,3]  4.3735237818051553e-02
    x[1,14]   findWorstP[2,1]  -4.3083900226757368e-03
    x[1,14]   findWorstP[3,1]  -4.3277775583553849e-02
    x[1,15]   allocateEach[15]  1
    x[1,15]   findWorstP[1,2]  2.1481423438147153e-02
    x[1,15]   findWorstP[1,3]  2.1481423438147153e-02
    x[1,15]   findWorstP[2,1]  -1.0462153115214340e-01
    x[1,15]   findWorstP[3,1]  -0.0169832931790355
    x[1,16]   allocateEach[16]  1
    x[1,16]   findWorstP[1,2]  3.1959074474158480e-02
    x[1,16]   findWorstP[1,3]  3.1959074474158480e-02
    x[1,16]   findWorstP[2,1]  -0.0805420580930785
    x[1,16]   findWorstP[3,1]  -9.5807496346617158e-02
    x[1,17]   allocateEach[17]  1
    x[1,17]   findWorstP[1,2]  1.0186605173899902e-03
    x[1,17]   findWorstP[1,3]  1.0186605173899902e-03
    x[1,17]   findWorstP[2,1]  -6.2973760932944614e-02
    x[1,17]   findWorstP[3,1]  -2.9138196611240563e-02
    x[2,1]    allocateEach[1]  1
    x[2,1]    findWorstP[1,2]  -8.6977936484837638e-03
    x[2,1]    findWorstP[2,1]  3.5438937479753810e-02
    x[2,1]    findWorstP[2,3]  3.5438937479753810e-02
    x[2,1]    findWorstP[3,2]  -8.8342746553971313e-02
    x[2,2]    allocateEach[2]  1
    x[2,2]    findWorstP[1,2]  -9.9291415266474864e-02
    x[2,2]    findWorstP[2,1]  9.8866213151927437e-02
    x[2,2]    findWorstP[2,3]  9.8866213151927437e-02
    x[2,2]    findWorstP[3,2]  -8.1677791381966111e-02
    x[2,3]    allocateEach[3]  1
    x[2,3]    findWorstP[1,2]  -1.0041082242844189e-02
    x[2,3]    findWorstP[2,1]  8.8251808659971939e-02
    x[2,3]    findWorstP[2,3]  8.8251808659971939e-02
    x[2,3]    findWorstP[3,2]  -0.0984932264307437
    x[2,4]    allocateEach[4]  1
    x[2,4]    findWorstP[1,2]  -0.0848846450919593
    x[2,4]    findWorstP[2,1]  1.0734261958751755e-01
    x[2,4]    findWorstP[2,3]  1.0734261958751755e-01
    x[2,4]    findWorstP[3,2]  -1.5097357715549585e-02
    x[2,5]    allocateEach[5]  1
    x[2,5]    findWorstP[1,2]  -0.0350374441695678
    x[2,5]    findWorstP[2,1]  1.4372098045567433e-02
    x[2,5]    findWorstP[2,3]  1.4372098045567433e-02
    x[2,5]    findWorstP[3,2]  -3.9466408625933085e-02
    x[2,6]    allocateEach[6]  1
    x[2,6]    findWorstP[1,2]  -7.4384605912708623e-02
    x[2,6]    findWorstP[2,1]  2.4759745167908433e-02
    x[2,6]    findWorstP[2,3]  2.4759745167908433e-02
    x[2,6]    findWorstP[3,2]  -8.6911015442947964e-02
    x[2,7]    allocateEach[7]  1
    x[2,7]    findWorstP[1,2]  -9.5709312348180392e-02
    x[2,7]    findWorstP[2,1]  5.7661159701976033e-03
    x[2,7]    findWorstP[2,3]  5.7661159701976033e-03
    x[2,7]    findWorstP[3,2]  -3.5714285714285712e-02
    x[2,8]    allocateEach[8]  1
    x[2,8]    findWorstP[1,2]  -1.1087727939283355e-01
    x[2,8]    findWorstP[2,1]  1.1273080660835764e-02
    x[2,8]    findWorstP[2,3]  1.1273080660835764e-02
    x[2,8]    findWorstP[3,2]  -7.4282159642955869e-02
    x[2,9]    allocateEach[9]  1
    x[2,9]    findWorstP[1,2]  -1.0182127545252033e-01
    x[2,9]    findWorstP[2,1]  1.0631681243926143e-01
    x[2,9]    findWorstP[2,3]  1.0631681243926143e-01
    x[2,9]    findWorstP[3,2]  -7.5496662585410143e-02
    x[2,10]   allocateEach[10]  1
    x[2,10]   findWorstP[1,2]  -2.4268747271445040e-02
    x[2,10]   findWorstP[2,1]  8.3619479537846889e-02
    x[2,10]   findWorstP[2,3]  8.3619479537846889e-02
    x[2,10]   findWorstP[3,2]  -0.0867234092973656
    x[2,11]   allocateEach[11]  1
    x[2,11]   findWorstP[1,2]  -4.6466591293251092e-02
    x[2,11]   findWorstP[2,1]  6.1300075585789870e-02
    x[2,11]   findWorstP[2,3]  6.1300075585789870e-02
    x[2,11]   findWorstP[3,2]  -1.8385402267072158e-02
    x[2,12]   allocateEach[12]  1
    x[2,12]   findWorstP[1,2]  -0.090224217254542
    x[2,12]   findWorstP[2,1]  2.8873771730914592e-02
    x[2,12]   findWorstP[2,3]  2.8873771730914592e-02
    x[2,12]   findWorstP[3,2]  -2.3796358465974166e-02
    x[2,13]   allocateEach[13]  1
    x[2,13]   findWorstP[1,2]  -9.2116015358266259e-02
    x[2,13]   findWorstP[2,1]  5.4378576827556424e-02
    x[2,13]   findWorstP[2,3]  5.4378576827556424e-02
    x[2,13]   findWorstP[3,2]  -6.5721394999802507e-02
    x[2,14]   allocateEach[14]  1
    x[2,14]   findWorstP[1,2]  -4.3735237818051553e-02
    x[2,14]   findWorstP[2,1]  4.3083900226757368e-03
    x[2,14]   findWorstP[2,3]  4.3083900226757368e-03
    x[2,14]   findWorstP[3,2]  -4.3277775583553849e-02
    x[2,15]   allocateEach[15]  1
    x[2,15]   findWorstP[1,2]  -2.1481423438147153e-02
    x[2,15]   findWorstP[2,1]  1.0462153115214340e-01
    x[2,15]   findWorstP[2,3]  1.0462153115214340e-01
    x[2,15]   findWorstP[3,2]  -0.0169832931790355
    x[2,16]   allocateEach[16]  1
    x[2,16]   findWorstP[1,2]  -3.1959074474158480e-02
    x[2,16]   findWorstP[2,1]  0.0805420580930785
    x[2,16]   findWorstP[2,3]  0.0805420580930785
    x[2,16]   findWorstP[3,2]  -9.5807496346617158e-02
    x[2,17]   allocateEach[17]  1
    x[2,17]   findWorstP[1,2]  -1.0186605173899902e-03
    x[2,17]   findWorstP[2,1]  6.2973760932944614e-02
    x[2,17]   findWorstP[2,3]  6.2973760932944614e-02
    x[2,17]   findWorstP[3,2]  -2.9138196611240563e-02
    x[3,1]    allocateEach[1]  1
    x[3,1]    findWorstP[1,3]  -8.6977936484837638e-03
    x[3,1]    findWorstP[2,3]  -3.5438937479753810e-02
    x[3,1]    findWorstP[3,1]  8.8342746553971313e-02
    x[3,1]    findWorstP[3,2]  8.8342746553971313e-02
    x[3,2]    allocateEach[2]  1
    x[3,2]    findWorstP[1,3]  -9.9291415266474864e-02
    x[3,2]    findWorstP[2,3]  -9.8866213151927437e-02
    x[3,2]    findWorstP[3,1]  8.1677791381966111e-02
    x[3,2]    findWorstP[3,2]  8.1677791381966111e-02
    x[3,3]    allocateEach[3]  1
    x[3,3]    findWorstP[1,3]  -1.0041082242844189e-02
    x[3,3]    findWorstP[2,3]  -8.8251808659971939e-02
    x[3,3]    findWorstP[3,1]  0.0984932264307437
    x[3,3]    findWorstP[3,2]  0.0984932264307437
    x[3,4]    allocateEach[4]  1
    x[3,4]    findWorstP[1,3]  -0.0848846450919593
    x[3,4]    findWorstP[2,3]  -1.0734261958751755e-01
    x[3,4]    findWorstP[3,1]  1.5097357715549585e-02
    x[3,4]    findWorstP[3,2]  1.5097357715549585e-02
    x[3,5]    allocateEach[5]  1
    x[3,5]    findWorstP[1,3]  -0.0350374441695678
    x[3,5]    findWorstP[2,3]  -1.4372098045567433e-02
    x[3,5]    findWorstP[3,1]  3.9466408625933085e-02
    x[3,5]    findWorstP[3,2]  3.9466408625933085e-02
    x[3,6]    allocateEach[6]  1
    x[3,6]    findWorstP[1,3]  -7.4384605912708623e-02
    x[3,6]    findWorstP[2,3]  -2.4759745167908433e-02
    x[3,6]    findWorstP[3,1]  8.6911015442947964e-02
    x[3,6]    findWorstP[3,2]  8.6911015442947964e-02
    x[3,7]    allocateEach[7]  1
    x[3,7]    findWorstP[1,3]  -9.5709312348180392e-02
    x[3,7]    findWorstP[2,3]  -5.7661159701976033e-03
    x[3,7]    findWorstP[3,1]  3.5714285714285712e-02
    x[3,7]    findWorstP[3,2]  3.5714285714285712e-02
    x[3,8]    allocateEach[8]  1
    x[3,8]    findWorstP[1,3]  -1.1087727939283355e-01
    x[3,8]    findWorstP[2,3]  -1.1273080660835764e-02
    x[3,8]    findWorstP[3,1]  7.4282159642955869e-02
    x[3,8]    findWorstP[3,2]  7.4282159642955869e-02
    x[3,9]    allocateEach[9]  1
    x[3,9]    findWorstP[1,3]  -1.0182127545252033e-01
    x[3,9]    findWorstP[2,3]  -1.0631681243926143e-01
    x[3,9]    findWorstP[3,1]  7.5496662585410143e-02
    x[3,9]    findWorstP[3,2]  7.5496662585410143e-02
    x[3,10]   allocateEach[10]  1
    x[3,10]   findWorstP[1,3]  -2.4268747271445040e-02
    x[3,10]   findWorstP[2,3]  -8.3619479537846889e-02
    x[3,10]   findWorstP[3,1]  0.0867234092973656
    x[3,10]   findWorstP[3,2]  0.0867234092973656
    x[3,11]   allocateEach[11]  1
    x[3,11]   findWorstP[1,3]  -4.6466591293251092e-02
    x[3,11]   findWorstP[2,3]  -6.1300075585789870e-02
    x[3,11]   findWorstP[3,1]  1.8385402267072158e-02
    x[3,11]   findWorstP[3,2]  1.8385402267072158e-02
    x[3,12]   allocateEach[12]  1
    x[3,12]   findWorstP[1,3]  -0.090224217254542
    x[3,12]   findWorstP[2,3]  -2.8873771730914592e-02
    x[3,12]   findWorstP[3,1]  2.3796358465974166e-02
    x[3,12]   findWorstP[3,2]  2.3796358465974166e-02
    x[3,13]   allocateEach[13]  1
    x[3,13]   findWorstP[1,3]  -9.2116015358266259e-02
    x[3,13]   findWorstP[2,3]  -5.4378576827556424e-02
    x[3,13]   findWorstP[3,1]  6.5721394999802507e-02
    x[3,13]   findWorstP[3,2]  6.5721394999802507e-02
    x[3,14]   allocateEach[14]  1
    x[3,14]   findWorstP[1,3]  -4.3735237818051553e-02
    x[3,14]   findWorstP[2,3]  -4.3083900226757368e-03
    x[3,14]   findWorstP[3,1]  4.3277775583553849e-02
    x[3,14]   findWorstP[3,2]  4.3277775583553849e-02
    x[3,15]   allocateEach[15]  1
    x[3,15]   findWorstP[1,3]  -2.1481423438147153e-02
    x[3,15]   findWorstP[2,3]  -1.0462153115214340e-01
    x[3,15]   findWorstP[3,1]  0.0169832931790355
    x[3,15]   findWorstP[3,2]  0.0169832931790355
    x[3,16]   allocateEach[16]  1
    x[3,16]   findWorstP[1,3]  -3.1959074474158480e-02
    x[3,16]   findWorstP[2,3]  -0.0805420580930785
    x[3,16]   findWorstP[3,1]  9.5807496346617158e-02
    x[3,16]   findWorstP[3,2]  9.5807496346617158e-02
    x[3,17]   allocateEach[17]  1
    x[3,17]   findWorstP[1,3]  -1.0186605173899902e-03
    x[3,17]   findWorstP[2,3]  -6.2973760932944614e-02
    x[3,17]   findWorstP[3,1]  2.9138196611240563e-02
    x[3,17]   findWorstP[3,2]  2.9138196611240563e-02
    MARKER    'MARKER'                 'INTEND'
RHS
    RHS1      allocateEach[1]  1
    RHS1      allocateEach[2]  1
    RHS1      allocateEach[3]  1
    RHS1      allocateEach[4]  1
    RHS1      allocateEach[5]  1
    RHS1      allocateEach[6]  1
    RHS1      allocateEach[7]  1
    RHS1      allocateEach[8]  1
    RHS1      allocateEach[9]  1
    RHS1      allocateEach[10]  1
    RHS1      allocateEach[11]  1
    RHS1      allocateEach[12]  1
    RHS1      allocateEach[13]  1
    RHS1      allocateEach[14]  1
    RHS1      allocateEach[15]  1
    RHS1      allocateEach[16]  1
    RHS1      allocateEach[17]  1
    RHS1      allocateAllCash  1
BOUNDS
 UP BND1      z         1
 MI BND1      cashProportion[1]
 UP BND1      cashProportion[1]  1
 MI BND1      cashProportion[2]
 UP BND1      cashProportion[2]  1
 MI BND1      cashProportion[3]
 UP BND1      cashProportion[3]  1
 BV BND1      x[1,1]  
 BV BND1      x[1,2]  
 BV BND1      x[1,3]  
 BV BND1      x[1,4]  
 BV BND1      x[1,5]  
 BV BND1      x[1,6]  
 BV BND1      x[1,7]  
 BV BND1      x[1,8]  
 BV BND1      x[1,9]  
 BV BND1      x[1,10] 
 BV BND1      x[1,11] 
 BV BND1      x[1,12] 
 BV BND1      x[1,13] 
 BV BND1      x[1,14] 
 BV BND1      x[1,15] 
 BV BND1      x[1,16] 
 BV BND1      x[1,17] 
 BV BND1      x[2,1]  
 BV BND1      x[2,2]  
 BV BND1      x[2,3]  
 BV BND1      x[2,4]  
 BV BND1      x[2,5]  
 BV BND1      x[2,6]  
 BV BND1      x[2,7]  
 BV BND1      x[2,8]  
 BV BND1      x[2,9]  
 BV BND1      x[2,10] 
 BV BND1      x[2,11] 
 BV BND1      x[2,12] 
 BV BND1      x[2,13] 
 BV BND1      x[2,14] 
 BV BND1      x[2,15] 
 BV BND1      x[2,16] 
 BV BND1      x[2,17] 
 BV BND1      x[3,1]  
 BV BND1      x[3,2]  
 BV BND1      x[3,3]  
 BV BND1      x[3,4]  
 BV BND1      x[3,5]  
 BV BND1      x[3,6]  
 BV BND1      x[3,7]  
 BV BND1      x[3,8]  
 BV BND1      x[3,9]  
 BV BND1      x[3,10] 
 BV BND1      x[3,11] 
 BV BND1      x[3,12] 
 BV BND1      x[3,13] 
 BV BND1      x[3,14] 
 BV BND1      x[3,15] 
 BV BND1      x[3,16] 
 BV BND1      x[3,17] 
ENDATA
